p cnf 386 460
8 1 -15 21 22 0
8 1 -15 21 -22 0
8 1 -15 -21 23 0
8 1 -15 -21 -23 0
-13 16 -10 24 25 0
-13 16 -10 24 -25 0
-13 16 -10 -24 26 0
-13 16 -10 -24 -26 0
13 12 2 27 28 0
13 12 2 27 -28 0
13 12 2 -27 29 0
13 12 2 -27 -29 0
-20 -12 11 30 31 0
-20 -12 11 30 -31 0
-20 -12 11 -30 32 0
-20 -12 11 -30 -32 0
16 -17 11 33 34 0
16 -17 11 33 -34 0
16 -17 11 -33 35 0
16 -17 11 -33 -35 0
10 19 -9 36 37 0
10 19 -9 36 -37 0
10 19 -9 -36 38 0
10 19 -9 -36 -38 0
17 -1 9 39 40 0
17 -1 9 39 -40 0
17 -1 9 -39 41 0
17 -1 9 -39 -41 0
7 -11 2 42 43 0
7 -11 2 42 -43 0
7 -11 2 -42 44 0
7 -11 2 -42 -44 0
-8 -17 -19 45 46 0
-8 -17 -19 45 -46 0
-8 -17 -19 -45 47 0
-8 -17 -19 -45 -47 0
-3 -12 -8 48 49 0
-3 -12 -8 48 -49 0
-3 -12 -8 -48 50 0
-3 -12 -8 -48 -50 0
1 18 9 51 52 0
1 18 9 51 -52 0
1 18 9 -51 53 0
1 18 9 -51 -53 0
1 7 12 54 55 0
1 7 12 54 -55 0
1 7 12 -54 56 0
1 7 12 -54 -56 0
14 -16 3 57 58 0
14 -16 3 57 -58 0
14 -16 3 -57 59 0
14 -16 3 -57 -59 0
10 9 -8 60 61 0
10 9 -8 60 -61 0
10 9 -8 -60 62 0
10 9 -8 -60 -62 0
10 16 8 63 64 0
10 16 8 63 -64 0
10 16 8 -63 65 0
10 16 8 -63 -65 0
-3 -8 5 66 67 0
-3 -8 5 66 -67 0
-3 -8 5 -66 68 0
-3 -8 5 -66 -68 0
14 -13 17 69 70 0
14 -13 17 69 -70 0
14 -13 17 -69 71 0
14 -13 17 -69 -71 0
7 -14 17 72 73 0
7 -14 17 72 -73 0
7 -14 17 -72 74 0
7 -14 17 -72 -74 0
19 -5 18 75 76 0
19 -5 18 75 -76 0
19 -5 18 -75 77 0
19 -5 18 -75 -77 0
-6 2 17 78 79 0
-6 2 17 78 -79 0
-6 2 17 -78 80 0
-6 2 17 -78 -80 0
20 -6 11 81 82 0
20 -6 11 81 -82 0
20 -6 11 -81 83 0
20 -6 11 -81 -83 0
-14 -11 16 84 85 0
-14 -11 16 84 -85 0
-14 -11 16 -84 86 0
-14 -11 16 -84 -86 0
8 -9 11 87 88 0
8 -9 11 87 -88 0
8 -9 11 -87 89 0
8 -9 11 -87 -89 0
-7 16 -18 90 91 0
-7 16 -18 90 -91 0
-7 16 -18 -90 92 0
-7 16 -18 -90 -92 0
-14 2 18 93 94 0
-14 2 18 93 -94 0
-14 2 18 -93 95 0
-14 2 18 -93 -95 0
-17 -5 10 96 97 0
-17 -5 10 96 -97 0
-17 -5 10 -96 98 0
-17 -5 10 -96 -98 0
-1 -11 17 99 100 0
-1 -11 17 99 -100 0
-1 -11 17 -99 101 0
-1 -11 17 -99 -101 0
-1 -3 -6 102 103 0
-1 -3 -6 102 -103 0
-1 -3 -6 -102 104 0
-1 -3 -6 -102 -104 0
-15 7 10 105 106 0
-15 7 10 105 -106 0
-15 7 10 -105 107 0
-15 7 10 -105 -107 0
5 -2 -11 108 109 0
5 -2 -11 108 -109 0
5 -2 -11 -108 110 0
5 -2 -11 -108 -110 0
-10 12 -2 111 112 0
-10 12 -2 111 -112 0
-10 12 -2 -111 113 0
-10 12 -2 -111 -113 0
-2 -3 -7 114 115 0
-2 -3 -7 114 -115 0
-2 -3 -7 -114 116 0
-2 -3 -7 -114 -116 0
3 -15 -2 117 118 0
3 -15 -2 117 -118 0
3 -15 -2 -117 119 0
3 -15 -2 -117 -119 0
-20 7 -10 120 121 0
-20 7 -10 120 -121 0
-20 7 -10 -120 122 0
-20 7 -10 -120 -122 0
3 10 9 123 124 0
3 10 9 123 -124 0
3 10 9 -123 125 0
3 10 9 -123 -125 0
-15 -17 9 126 127 0
-15 -17 9 126 -127 0
-15 -17 9 -126 128 0
-15 -17 9 -126 -128 0
-15 -1 -12 129 130 0
-15 -1 -12 129 -130 0
-15 -1 -12 -129 131 0
-15 -1 -12 -129 -131 0
16 9 12 132 133 0
16 9 12 132 -133 0
16 9 12 -132 134 0
16 9 12 -132 -134 0
-4 9 -5 135 136 0
-4 9 -5 135 -136 0
-4 9 -5 -135 137 0
-4 9 -5 -135 -137 0
12 -9 2 138 139 0
12 -9 2 138 -139 0
12 -9 2 -138 140 0
12 -9 2 -138 -140 0
-7 8 3 141 142 0
-7 8 3 141 -142 0
-7 8 3 -141 143 0
-7 8 3 -141 -143 0
-1 15 -2 144 145 0
-1 15 -2 144 -145 0
-1 15 -2 -144 146 0
-1 15 -2 -144 -146 0
3 4 -15 147 148 0
3 4 -15 147 -148 0
3 4 -15 -147 149 0
3 4 -15 -147 -149 0
10 -13 -4 150 151 0
10 -13 -4 150 -151 0
10 -13 -4 -150 152 0
10 -13 -4 -150 -152 0
-15 8 19 153 154 0
-15 8 19 153 -154 0
-15 8 19 -153 155 0
-15 8 19 -153 -155 0
-2 10 8 156 157 0
-2 10 8 156 -157 0
-2 10 8 -156 158 0
-2 10 8 -156 -158 0
17 -5 10 159 160 0
17 -5 10 159 -160 0
17 -5 10 -159 161 0
17 -5 10 -159 -161 0
12 16 -8 162 163 0
12 16 -8 162 -163 0
12 16 -8 -162 164 0
12 16 -8 -162 -164 0
5 -12 6 165 166 0
5 -12 6 165 -166 0
5 -12 6 -165 167 0
5 -12 6 -165 -167 0
4 9 -13 168 169 0
4 9 -13 168 -169 0
4 9 -13 -168 170 0
4 9 -13 -168 -170 0
-7 4 -3 171 172 0
-7 4 -3 171 -172 0
-7 4 -3 -171 173 0
-7 4 -3 -171 -173 0
-3 18 17 174 175 0
-3 18 17 174 -175 0
-3 18 17 -174 176 0
-3 18 17 -174 -176 0
17 18 5 177 178 0
17 18 5 177 -178 0
17 18 5 -177 179 0
17 18 5 -177 -179 0
17 -7 -19 180 181 0
17 -7 -19 180 -181 0
17 -7 -19 -180 182 0
17 -7 -19 -180 -182 0
-7 19 1 183 184 0
-7 19 1 183 -184 0
-7 19 1 -183 185 0
-7 19 1 -183 -185 0
13 8 16 186 187 0
13 8 16 186 -187 0
13 8 16 -186 188 0
13 8 16 -186 -188 0
-4 -6 -5 189 190 0
-4 -6 -5 189 -190 0
-4 -6 -5 -189 191 0
-4 -6 -5 -189 -191 0
-12 -10 18 192 193 0
-12 -10 18 192 -193 0
-12 -10 18 -192 194 0
-12 -10 18 -192 -194 0
-12 -19 -3 195 196 0
-12 -19 -3 195 -196 0
-12 -19 -3 -195 197 0
-12 -19 -3 -195 -197 0
-1 -12 -17 198 199 0
-1 -12 -17 198 -199 0
-1 -12 -17 -198 200 0
-1 -12 -17 -198 -200 0
13 20 -8 201 202 0
13 20 -8 201 -202 0
13 20 -8 -201 203 0
13 20 -8 -201 -203 0
-16 -4 -2 204 205 0
-16 -4 -2 204 -205 0
-16 -4 -2 -204 206 0
-16 -4 -2 -204 -206 0
-13 10 -3 207 208 0
-13 10 -3 207 -208 0
-13 10 -3 -207 209 0
-13 10 -3 -207 -209 0
-15 -17 14 210 211 0
-15 -17 14 210 -211 0
-15 -17 14 -210 212 0
-15 -17 14 -210 -212 0
13 -12 -19 213 214 0
13 -12 -19 213 -214 0
13 -12 -19 -213 215 0
13 -12 -19 -213 -215 0
-9 -5 -11 216 217 0
-9 -5 -11 216 -217 0
-9 -5 -11 -216 218 0
-9 -5 -11 -216 -218 0
-12 8 -15 219 220 0
-12 8 -15 219 -220 0
-12 8 -15 -219 221 0
-12 8 -15 -219 -221 0
6 19 3 222 223 0
6 19 3 222 -223 0
6 19 3 -222 224 0
6 19 3 -222 -224 0
-4 17 -1 225 226 0
-4 17 -1 225 -226 0
-4 17 -1 -225 227 0
-4 17 -1 -225 -227 0
-6 -3 18 228 229 0
-6 -3 18 228 -229 0
-6 -3 18 -228 230 0
-6 -3 18 -228 -230 0
-5 -8 14 231 232 0
-5 -8 14 231 -232 0
-5 -8 14 -231 233 0
-5 -8 14 -231 -233 0
9 -12 7 234 235 0
9 -12 7 234 -235 0
9 -12 7 -234 236 0
9 -12 7 -234 -236 0
-4 7 -14 237 238 0
-4 7 -14 237 -238 0
-4 7 -14 -237 239 0
-4 7 -14 -237 -239 0
14 6 -18 240 241 0
14 6 -18 240 -241 0
14 6 -18 -240 242 0
14 6 -18 -240 -242 0
14 13 -11 243 244 0
14 13 -11 243 -244 0
14 13 -11 -243 245 0
14 13 -11 -243 -245 0
11 -6 10 246 247 0
11 -6 10 246 -247 0
11 -6 10 -246 248 0
11 -6 10 -246 -248 0
-14 -16 20 249 250 0
-14 -16 20 249 -250 0
-14 -16 20 -249 251 0
-14 -16 20 -249 -251 0
13 10 15 252 253 0
13 10 15 252 -253 0
13 10 15 -252 254 0
13 10 15 -252 -254 0
-7 11 10 255 256 0
-7 11 10 255 -256 0
-7 11 10 -255 257 0
-7 11 10 -255 -257 0
-10 15 -9 258 259 0
-10 15 -9 258 -259 0
-10 15 -9 -258 260 0
-10 15 -9 -258 -260 0
-4 -13 -20 261 262 0
-4 -13 -20 261 -262 0
-4 -13 -20 -261 263 0
-4 -13 -20 -261 -263 0
-14 12 13 264 265 0
-14 12 13 264 -265 0
-14 12 13 -264 266 0
-14 12 13 -264 -266 0
-14 6 -1 267 268 0
-14 6 -1 267 -268 0
-14 6 -1 -267 269 0
-14 6 -1 -267 -269 0
-1 -6 -7 270 271 0
-1 -6 -7 270 -271 0
-1 -6 -7 -270 272 0
-1 -6 -7 -270 -272 0
-2 -13 -3 273 274 0
-2 -13 -3 273 -274 0
-2 -13 -3 -273 275 0
-2 -13 -3 -273 -275 0
15 10 -8 276 277 0
15 10 -8 276 -277 0
15 10 -8 -276 278 0
15 10 -8 -276 -278 0
-1 3 16 279 280 0
-1 3 16 279 -280 0
-1 3 16 -279 281 0
-1 3 16 -279 -281 0
-17 5 -12 282 283 0
-17 5 -12 282 -283 0
-17 5 -12 -282 284 0
-17 5 -12 -282 -284 0
1 20 10 285 286 0
1 20 10 285 -286 0
1 20 10 -285 287 0
1 20 10 -285 -287 0
-3 -17 -19 288 289 0
-3 -17 -19 288 -289 0
-3 -17 -19 -288 290 0
-3 -17 -19 -288 -290 0
-9 -19 20 291 292 0
-9 -19 20 291 -292 0
-9 -19 20 -291 293 0
-9 -19 20 -291 -293 0
294 295 297 301 309 0
294 295 297 301 -309 0
294 295 297 -301 310 0
294 295 297 -301 -310 0
294 295 -297 302 311 0
294 295 -297 302 -311 0
294 295 -297 -302 312 0
294 295 -297 -302 -312 0
294 -295 298 303 313 0
294 -295 298 303 -313 0
294 -295 298 -303 314 0
294 -295 298 -303 -314 0
294 -295 -298 304 315 0
294 -295 -298 304 -315 0
294 -295 -298 -304 316 0
294 -295 -298 -304 -316 0
-294 296 299 305 317 0
-294 296 299 305 -317 0
-294 296 299 -305 318 0
-294 296 299 -305 -318 0
-294 296 -299 306 319 0
-294 296 -299 306 -319 0
-294 296 -299 -306 320 0
-294 296 -299 -306 -320 0
-294 -296 300 307 321 0
-294 -296 300 307 -321 0
-294 -296 300 -307 322 0
-294 -296 300 -307 -322 0
-294 -296 -300 308 323 0
-294 -296 -300 308 -323 0
-294 -296 -300 -308 324 0
-294 -296 -300 -308 -324 0
325 326 328 332 340 0
325 326 328 332 -340 0
325 326 328 -332 341 0
325 326 328 -332 -341 0
325 326 -328 333 342 0
325 326 -328 333 -342 0
325 326 -328 -333 343 0
325 326 -328 -333 -343 0
325 -326 329 334 344 0
325 -326 329 334 -344 0
325 -326 329 -334 345 0
325 -326 329 -334 -345 0
325 -326 -329 335 346 0
325 -326 -329 335 -346 0
325 -326 -329 -335 347 0
325 -326 -329 -335 -347 0
-325 327 330 336 348 0
-325 327 330 336 -348 0
-325 327 330 -336 349 0
-325 327 330 -336 -349 0
-325 327 -330 337 350 0
-325 327 -330 337 -350 0
-325 327 -330 -337 351 0
-325 327 -330 -337 -351 0
-325 -327 331 338 352 0
-325 -327 331 338 -352 0
-325 -327 331 -338 353 0
-325 -327 331 -338 -353 0
-325 -327 -331 339 354 0
-325 -327 -331 339 -354 0
-325 -327 -331 -339 355 0
-325 -327 -331 -339 -355 0
356 357 359 363 371 0
356 357 359 363 -371 0
356 357 359 -363 372 0
356 357 359 -363 -372 0
356 357 -359 364 373 0
356 357 -359 364 -373 0
356 357 -359 -364 374 0
356 357 -359 -364 -374 0
356 -357 360 365 375 0
356 -357 360 365 -375 0
356 -357 360 -365 376 0
356 -357 360 -365 -376 0
356 -357 -360 366 377 0
356 -357 -360 366 -377 0
356 -357 -360 -366 378 0
356 -357 -360 -366 -378 0
-356 358 361 367 379 0
-356 358 361 367 -379 0
-356 358 361 -367 380 0
-356 358 361 -367 -380 0
-356 358 -361 368 381 0
-356 358 -361 368 -381 0
-356 358 -361 -368 382 0
-356 358 -361 -368 -382 0
-356 -358 362 369 383 0
-356 -358 362 369 -383 0
-356 -358 362 -369 384 0
-356 -358 362 -369 -384 0
-356 -358 -362 370 385 0
-356 -358 -362 370 -385 0
-356 -358 -362 -370 386 0
-356 -358 -362 -370 -386 0

